c preprocessed version of 1b0n_graph.dimacs-006, 98 vertices, 981 edges
p td 98 981
96 97
95 97
95 96
94 97
94 96
94 95
93 97
93 96
93 95
93 94
92 97
92 96
92 95
92 94
92 93
91 96
91 95
91 94
91 93
91 92
90 97
90 95
90 94
90 93
90 92
90 91
89 96
89 94
89 93
89 92
89 91
89 90
88 95
88 92
88 91
88 90
88 89
87 94
87 91
87 90
87 89
87 88
86 93
86 90
86 89
86 88
86 87
85 92
85 91
85 90
85 89
85 88
85 87
85 86
84 96
84 95
84 93
84 92
84 91
84 89
84 88
84 86
84 85
83 88
83 85
83 84
82 92
82 89
82 88
82 85
82 84
82 83
81 84
81 83
81 82
80 89
80 86
80 85
80 83
80 82
80 81
79 96
79 93
79 92
79 90
79 89
79 88
79 86
79 85
79 84
79 83
79 82
79 81
79 80
78 92
78 89
78 84
78 82
78 81
78 80
78 79
77 81
77 80
77 79
77 78
76 93
76 89
76 86
76 81
76 80
76 79
76 78
76 77
75 96
75 93
75 92
75 89
75 84
75 82
75 80
75 79
75 78
75 77
75 76
74 81
74 79
74 78
74 77
74 76
74 75
73 80
73 77
73 76
73 75
73 74
72 93
72 89
72 79
72 76
72 75
72 74
72 73
71 78
71 75
71 74
71 73
71 72
70 77
70 74
70 73
70 72
70 71
69 75
69 74
69 73
69 72
69 71
69 70
68 89
68 80
68 79
68 77
68 76
68 75
68 73
68 72
68 71
68 70
68 69
66 67
65 93
65 76
65 72
65 68
65 67
65 66
64 97
64 93
64 67
64 66
64 65
63 67
63 66
63 65
63 64
62 93
62 90
62 68
62 66
62 65
62 64
62 63
61 66
61 65
61 64
61 63
61 62
60 66
60 65
60 63
60 62
60 61
59 93
59 90
59 89
59 86
59 80
59 76
59 68
59 66
59 65
59 64
59 62
59 61
59 60
58 97
58 94
58 93
58 90
58 87
58 86
58 65
58 64
58 63
58 62
58 61
58 60
58 59
57 90
57 61
57 60
57 59
57 58
56 93
56 90
56 87
56 86
56 85
56 62
56 61
56 60
56 59
56 58
56 57
55 86
55 76
55 66
55 65
55 62
55 61
55 60
55 59
55 58
55 57
55 56
54 86
54 80
54 76
54 60
54 59
54 56
54 55
53 60
53 59
53 57
53 56
53 55
53 54
52 60
52 55
52 54
52 53
51 57
51 56
51 55
51 54
51 53
51 52
50 61
50 60
50 59
50 58
50 57
50 56
50 55
50 54
50 53
50 52
50 51
49 61
49 60
49 59
49 57
49 55
49 53
49 52
49 51
49 50
48 60
48 53
48 52
48 51
48 50
48 49
47 61
47 60
47 58
47 57
47 56
47 51
47 50
47 49
47 48
46 63
46 61
46 60
46 59
46 58
46 57
46 56
46 55
46 53
46 51
46 50
46 49
46 48
46 47
45 61
45 60
45 57
45 53
45 50
45 49
45 48
45 47
45 46
44 57
44 51
44 49
44 48
44 47
44 46
44 45
43 61
43 60
43 58
43 57
43 56
43 50
43 48
43 47
43 46
43 45
43 44
42 57
42 49
42 48
42 47
42 46
42 45
42 44
42 43
41 63
41 61
41 60
41 57
41 55
41 53
41 50
41 49
41 48
41 47
41 46
41 45
41 44
41 43
41 42
40 61
40 46
40 45
40 43
40 42
40 41
39 63
39 41
39 40
38 46
38 45
38 42
38 41
38 40
38 39
37 41
37 39
37 38
36 67
36 66
36 41
36 39
36 38
36 37
35 38
35 37
35 36
34 60
34 55
34 53
34 52
34 50
34 49
34 48
34 46
34 45
34 41
34 37
34 36
34 35
33 63
33 61
33 60
33 57
33 55
33 53
33 50
33 49
33 48
33 46
33 45
33 44
33 42
33 41
33 40
33 39
33 38
33 37
33 36
33 35
33 34
32 45
32 41
32 40
32 39
32 38
32 37
32 36
32 35
32 34
32 33
31 49
31 38
31 37
31 35
31 34
31 33
31 32
30 60
30 55
30 53
30 52
30 50
30 49
30 48
30 46
30 45
30 44
30 41
30 38
30 35
30 34
30 33
30 32
30 31
29 49
29 48
29 46
29 45
29 44
29 42
29 41
29 40
29 38
29 34
29 33
29 32
29 31
29 30
28 45
28 41
28 38
28 37
28 35
28 33
28 32
28 31
28 30
28 29
27 49
27 35
27 34
27 32
27 31
27 30
27 29
27 28
26 49
26 48
26 45
26 44
26 42
26 41
26 38
26 33
26 32
26 31
26 30
26 29
26 28
26 27
25 60
25 53
25 52
25 51
25 50
25 49
25 48
25 47
25 46
25 45
25 44
25 42
25 41
25 38
25 34
25 33
25 32
25 31
25 30
25 29
25 28
25 27
25 26
24 52
24 51
24 49
24 48
24 45
24 44
24 30
24 26
24 25
23 60
23 55
23 53
23 52
23 51
23 50
23 49
23 48
23 46
23 45
23 44
23 41
23 34
23 33
23 30
23 29
23 27
23 26
23 25
23 24
22 54
22 53
22 52
22 51
22 49
22 48
22 30
22 25
22 24
22 23
21 52
21 49
21 27
21 26
21 25
21 24
21 23
21 22
20 53
20 52
20 49
20 48
20 45
20 34
20 32
20 31
20 30
20 29
20 28
20 27
20 26
20 25
20 24
20 23
20 22
20 21
19 60
19 55
19 54
19 53
19 52
19 51
19 50
19 49
19 48
19 46
19 45
19 41
19 34
19 33
19 31
19 30
19 29
19 27
19 25
19 24
19 23
19 22
19 21
19 20
18 53
18 52
18 49
18 30
18 27
18 23
18 22
18 21
18 20
18 19
17 34
17 31
17 30
17 28
17 27
17 26
17 22
17 21
17 20
17 19
17 18
16 53
16 52
16 49
16 45
16 41
16 35
16 34
16 33
16 31
16 30
16 28
16 27
16 25
16 23
16 20
16 19
16 18
16 17
15 34
15 31
15 30
15 27
15 22
15 21
15 19
15 18
15 17
15 16
14 60
14 55
14 54
14 53
14 52
14 49
14 34
14 30
14 25
14 23
14 22
14 21
14 19
14 18
14 17
14 16
14 15
13 52
13 22
13 19
13 18
13 15
13 14
12 59
12 55
12 54
12 53
12 52
12 51
12 49
12 23
12 22
12 19
12 18
12 14
12 13
11 80
11 76
11 73
11 68
11 65
11 60
11 59
11 55
11 54
11 53
11 19
11 14
11 13
11 12
10 53
10 34
10 19
10 16
10 15
10 14
10 13
10 12
10 11
9 60
9 55
9 53
9 52
9 50
9 49
9 48
9 46
9 45
9 41
9 35
9 34
9 33
9 31
9 30
9 27
9 25
9 23
9 22
9 20
9 19
9 18
9 17
9 16
9 15
9 14
9 13
9 12
9 11
9 10
8 66
8 65
8 62
8 60
8 59
8 57
8 56
8 55
8 54
8 53
8 52
8 50
8 49
8 46
8 45
8 41
8 34
8 33
8 30
8 25
8 23
8 22
8 19
8 14
8 12
8 11
8 10
8 9
7 66
7 65
7 62
7 60
7 59
7 55
7 53
7 36
7 34
7 11
7 10
7 9
7 8
6 53
6 49
6 41
6 37
6 36
6 35
6 34
6 33
6 31
6 30
6 27
6 25
6 20
6 19
6 16
6 15
6 14
6 11
6 10
6 9
6 8
6 7
5 63
5 61
5 60
5 59
5 57
5 55
5 53
5 52
5 50
5 49
5 48
5 47
5 46
5 45
5 41
5 38
5 36
5 35
5 34
5 33
5 31
5 30
5 29
5 27
5 25
5 23
5 22
5 20
5 19
5 16
5 14
5 12
5 10
5 9
5 8
5 7
5 6
4 67
4 66
4 65
4 64
4 63
4 62
4 61
4 60
4 59
4 58
4 56
4 55
4 53
4 50
4 49
4 46
4 41
4 36
4 34
4 33
4 19
4 11
4 9
4 8
4 7
4 6
4 5
3 67
3 66
3 65
3 63
3 37
3 36
3 35
3 34
3 33
3 16
3 10
3 8
3 7
3 6
3 5
3 4
2 66
2 60
2 49
2 46
2 45
2 41
2 39
2 38
2 37
2 36
2 35
2 34
2 33
2 32
2 30
2 16
2 9
2 6
2 5
2 4
2 3
1 66
1 65
1 63
1 62
1 61
1 60
1 57
1 55
1 53
1 50
1 49
1 46
1 45
1 43
1 41
1 40
1 39
1 36
1 34
1 33
1 30
1 29
1 25
1 19
1 9
1 8
1 6
1 5
1 4
1 3
1 2
0 67
0 66
0 63
0 61
0 41
0 40
0 39
0 38
0 37
0 36
0 35
0 33
0 5
0 4
0 3
0 2
0 1
97 91
